(declare-const |mem_21@width'| Int)
(declare-const |mem_22'| Int)
(declare-const |mem_21@pos'| Int)
(declare-const |mem_21'| Int)
(declare-const |x'| Int)
(declare-const |y'| Int)
(declare-const |mem_20@width'| Int)
(declare-const |mem_22@pos'| Int)
(declare-const |mem_22@width'| Int)
(declare-const |mem_20@pos'| Int)
(declare-const |j'| Int)
(declare-const |mem_20'| Int)
(declare-const edgecount Int)
(assert (exists
         ((tr?1 Int) (tr?2 Int) (tr?3 Int) (tr?4 Int) (tr?5 Int) (tr?6 Int)
            (tr?7 Int) (tr?8 Int) (phi_mem_22@width?9 Int)
            (phi_mem_21@width?10 Int) (phi_mem_20@width?11 Int)
            (phi_mem_22@pos?12 Int) (phi_mem_21@pos?13 Int)
            (phi_mem_20@pos?14 Int) (phi_mem_22?15 Int) (phi_mem_21?16 Int)
            (phi_mem_20?17 Int) (tr?18 Int) (tr?19 Int) (tr?20 Int)
            (mem_20?21 Int) (mem_21?22 Int) (mem_22?23 Int)
            (mem_20@pos?24 Int) (mem_21@pos?25 Int) (mem_22@pos?26 Int)
            (mem_20@width?27 Int) (mem_21@width?28 Int) (mem_22@width?29 Int)
            (j?30 Int))
         (and (<= (+ (- edgecount) 1) 0) (<= (- j?30) 0)
                (= (+ edgecount -20) 0) (<= (+ j?30 (- edgecount) 1) 0)
                (or (and (<= (+ (- tr?18) (- tr?19) tr?20) 0)
                           (= (+ (- phi_mem_20?17) mem_20?21) 0)
                           (= (+ (- phi_mem_21?16) mem_21?22) 0)
                           (= (+ (- phi_mem_22?15) mem_22?23) 0)
                           (= (+ (- phi_mem_20@pos?14) mem_20@pos?24) 0)
                           (= (+ (- phi_mem_21@pos?13) mem_21@pos?25) 0)
                           (= (+ (- phi_mem_22@pos?12) mem_22@pos?26) 0)
                           (= (+ (- phi_mem_20@width?11) mem_20@width?27) 0)
                           (= (+ (- phi_mem_21@width?10) mem_21@width?28) 0)
                           (= (+ (- phi_mem_22@width?9) mem_22@width?29) 0))
                      (and (<= (+ (- tr?6) tr?7 tr?8 1) 0)
                             (= (+ (* 4 tr?4) tr?5 (- phi_mem_20?17)) 0)
                             (= (+ (* 4 tr?2) tr?3 (- phi_mem_21?16)) 0)
                             (= (+ tr?1 (- phi_mem_22?15) (* 4 j?30)) 0)
                             (= (+ (* 4 tr?4) (- phi_mem_20@pos?14)) 0)
                             (= (+ (* 4 tr?2) (- phi_mem_21@pos?13)) 0)
                             (= (+ (- phi_mem_22@pos?12) (* 4 j?30)) 0)
                             (= (+ (- phi_mem_20@width?11) 1) 0)
                             (= (+ (- phi_mem_21@width?10) 1) 0)
                             (= (+ (- phi_mem_22@width?9) 1) 0)))
                (= (+ |mem_22@width'| (- phi_mem_22@width?9)) 0)
                (= (+ |mem_21@width'| (- phi_mem_21@width?10)) 0)
                (= (+ |mem_20@width'| (- phi_mem_20@width?11)) 0)
                (= (+ |mem_22@pos'| (- phi_mem_22@pos?12)) 0)
                (= (+ |mem_21@pos'| (- phi_mem_21@pos?13)) 0)
                (= (+ |mem_20@pos'| (- phi_mem_20@pos?14)) 0)
                (= (+ |mem_22'| (- phi_mem_22?15)) 0)
                (= (+ |mem_21'| (- phi_mem_21?16)) 0)
                (= (+ |mem_20'| (- phi_mem_20?17)) 0)
                (= (+ |j'| (- j?30) -1) 0) (= (+ |y'| (- tr?2)) 0)
                (= (+ |x'| (- tr?4)) 0))))
(check-sat)
